Minimize
 obj: 0 X_0_1
Subject To
 out_0:
  + 1 X_0_1 + 1 X_0_2 + 1 X_0_3 + 1 X_0_4
  = 1
 in_0:
  + 1 X_1_0 + 1 X_2_0 + 1 X_3_0 + 1 X_4_0
  = 1
 out_1:
  + 1 X_1_0 + 1 X_1_2 + 1 X_1_3 + 1 X_1_4
  = 1
 in_1:
  + 1 X_0_1 + 1 X_2_1 + 1 X_3_1 + 1 X_4_1
  = 1
 out_2:
  + 1 X_2_0 + 1 X_2_1 + 1 X_2_3 + 1 X_2_4
  = 1
 in_2:
  + 1 X_0_2 + 1 X_1_2 + 1 X_3_2 + 1 X_4_2
  = 1
 out_3:
  + 1 X_3_0 + 1 X_3_1 + 1 X_3_2 + 1 X_3_4
  = 1
 in_3:
  + 1 X_0_3 + 1 X_1_3 + 1 X_2_3 + 1 X_4_3
  = 1
 out_4:
  + 1 X_4_0 + 1 X_4_1 + 1 X_4_2 + 1 X_4_3
  = 1
 in_4:
  + 1 X_0_4 + 1 X_1_4 + 1 X_2_4 + 1 X_3_4
  = 1
 mtz_1_2:
  + 1 U1 - 1 U2 + 4 X_1_2
  <= 3
 mtz_1_3:
  + 1 U1 - 1 U3 + 4 X_1_3
  <= 3
 mtz_1_4:
  + 1 U1 - 1 U4 + 4 X_1_4
  <= 3
 mtz_2_1:
  + 1 U2 - 1 U1 + 4 X_2_1
  <= 3
 mtz_2_3:
  + 1 U2 - 1 U3 + 4 X_2_3
  <= 3
 mtz_2_4:
  + 1 U2 - 1 U4 + 4 X_2_4
  <= 3
 mtz_3_1:
  + 1 U3 - 1 U1 + 4 X_3_1
  <= 3
 mtz_3_2:
  + 1 U3 - 1 U2 + 4 X_3_2
  <= 3
 mtz_3_4:
  + 1 U3 - 1 U4 + 4 X_3_4
  <= 3
 mtz_4_1:
  + 1 U4 - 1 U1 + 4 X_4_1
  <= 3
 mtz_4_2:
  + 1 U4 - 1 U2 + 4 X_4_2
  <= 3
 mtz_4_3:
  + 1 U4 - 1 U3 + 4 X_4_3
  <= 3
 obj1:
  + 607 X_0_1 + 757 X_0_2 + 607 X_0_3 + 419 X_0_4 + 607 X_1_0 + 153 X_1_2 + 624 X_1_3 + 983 X_1_4
  + 757 X_2_0 + 153 X_2_1 + 683 X_2_3 + 1120 X_2_4 + 607 X_3_0 + 624 X_3_1 + 683 X_3_2 + 701 X_3_4
  + 419 X_4_0 + 983 X_4_1 + 1120 X_4_2 + 701 X_4_3
  <= 1
 obj2:
  + 935 X_0_1 + 631 X_0_2 + 61 X_0_3 + 555 X_0_4 + 935 X_1_0 + 1000 X_1_2 + 981 X_1_3 + 1192 X_1_4
  + 631 X_2_0 + 1000 X_2_1 + 602 X_2_3 + 282 X_2_4 + 61 X_3_0 + 981 X_3_1 + 602 X_3_2 + 505 X_3_4
  + 555 X_4_0 + 1192 X_4_1 + 282 X_4_2 + 505 X_4_3
  <= 2
 obj3:
  + 991 X_0_1 + 897 X_0_2 + 333 X_0_3 + 385 X_0_4 + 991 X_1_0 + 286 X_1_2 + 693 X_1_3 + 708 X_1_4
  + 897 X_2_0 + 286 X_2_1 + 565 X_2_3 + 719 X_2_4 + 333 X_3_0 + 693 X_3_1 + 565 X_3_2 + 343 X_3_4
  + 385 X_4_0 + 708 X_4_1 + 719 X_4_2 + 343 X_4_3
  <= 3
 obj4:
  + 722 X_0_1 + 327 X_0_2 + 722 X_0_3 + 295 X_0_4 + 722 X_1_0 + 756 X_1_2 + 643 X_1_3 + 588 X_1_4
  + 327 X_2_0 + 756 X_2_1 + 469 X_2_3 + 169 X_2_4 + 722 X_3_0 + 643 X_3_1 + 469 X_3_2 + 426 X_3_4
  + 295 X_4_0 + 588 X_4_1 + 169 X_4_2 + 426 X_4_3
  <= 4
 obj5:
  + 329 X_0_1 + 742 X_0_2 + 130 X_0_3 + 606 X_0_4 + 329 X_1_0 + 564 X_1_2 + 199 X_1_3 + 776 X_1_4
  + 742 X_2_0 + 564 X_2_1 + 664 X_2_3 + 711 X_2_4 + 130 X_3_0 + 199 X_3_1 + 664 X_3_2 + 665 X_3_4
  + 606 X_4_0 + 776 X_4_1 + 711 X_4_2 + 665 X_4_3
  <= 5
Bounds
 1 <= U1 <= 4
 1 <= U2 <= 4
 1 <= U3 <= 4
 1 <= U4 <= 4
Binary
 X_0_1
 X_0_2
 X_0_3
 X_0_4
 X_1_0
 X_1_2
 X_1_3
 X_1_4
 X_2_0
 X_2_1
 X_2_3
 X_2_4
 X_3_0
 X_3_1
 X_3_2
 X_3_4
 X_4_0
 X_4_1
 X_4_2
 X_4_3
End
